c uprop, v00.0, 
c reading from data/prog148.c.cnf
c done reading: 0.002049
p cnf 97 415
-52 -68 0
-55 -68 0
52 55 68 0
52 55 -73 0
-52 -55 -73 0
-52 55 73 0
52 -55 73 0
-59 68 0
-59 -60 0
59 60 -68 0
60 -64 -68 0
-60 -64 68 0
60 64 68 0
-60 64 -68 0
59 -67 0
-67 -69 0
-59 67 69 0
-59 69 -71 0
59 -69 -71 0
59 69 71 0
-59 -69 71 0
67 -72 0
-72 -74 0
-67 72 74 0
-54 -67 74 0
-54 67 -74 0
54 67 74 0
54 -67 -74 0
-51 72 0
-51 -57 0
51 57 -72 0
-50 57 -72 0
-50 -57 72 0
50 57 72 0
50 -57 -72 0
-49 51 0
-49 -62 0
49 -51 62 0
-48 -51 62 0
-48 51 -62 0
48 51 62 0
48 -51 -62 0
-47 49 0
-47 -65 0
47 -49 65 0
-46 -49 65 0
-46 49 -65 0
46 49 65 0
46 -49 -65 0
-45 69 0
-45 52 0
45 -52 -69 0
-44 -52 -69 0
-44 52 69 0
44 52 -69 0
44 -52 69 0
43 -55 -74 0
43 -45 -74 0
43 -45 -55 0
-43 55 74 0
-43 45 74 0
-43 45 55 0
-42 -43 74 0
-42 -43 55 0
-42 -43 45 0
42 43 -74 0
42 43 -55 0
42 43 -45 0
42 -45 -55 -74 0
-42 45 55 74 0
41 -57 -60 0
41 -43 -57 0
41 -43 -60 0
-41 57 60 0
-41 43 57 0
-41 43 60 0
-40 -41 57 0
-40 -41 60 0
-40 -41 43 0
40 41 -57 0
40 41 -60 0
40 41 -43 0
40 -43 -57 -60 0
-40 43 57 60 0
39 -62 -69 0
39 -41 -62 0
39 -41 -69 0
-39 62 69 0
-39 41 62 0
-39 41 69 0
-39 62 -76 0
-39 69 -76 0
-39 41 -76 0
39 -62 76 0
39 -69 76 0
39 -41 76 0
-41 -62 -69 76 0
41 62 69 -76 0
-65 -74 77 0
-39 -65 77 0
-39 -74 77 0
65 74 -77 0
39 65 -77 0
39 74 -77 0
65 -77 -78 0
74 -77 -78 0
39 -77 -78 0
-65 77 78 0
-74 77 78 0
-39 77 78 0
-39 -65 -74 78 0
39 65 74 -78 0
57 -79 0
77 -79 0
-57 -77 79 0
-57 -77 -80 0
57 77 -80 0
-57 77 80 0
57 -77 80 0
62 -81 0
79 -81 0
-62 -79 81 0
-53 -62 -79 0
-53 62 79 0
53 -62 79 0
53 62 -79 0
-56 65 0
-56 81 0
56 -65 -81 0
-61 -65 -81 0
-61 65 81 0
61 -65 81 0
61 65 -81 0
42 -70 0
52 -70 0
-42 -52 70 0
-42 -52 -75 0
42 52 -75 0
-42 52 75 0
42 -52 75 0
-40 -55 58 0
-40 58 -70 0
-55 58 -70 0
40 55 -58 0
40 -58 70 0
55 -58 70 0
40 -58 -63 0
55 -58 -63 0
-58 -63 70 0
-40 58 63 0
-55 58 63 0
58 63 -70 0
-40 -55 63 -70 0
40 55 -63 70 0
-60 66 -76 0
-58 66 -76 0
-58 -60 66 0
60 -66 76 0
58 -66 76 0
58 60 -66 0
-66 76 -82 0
60 -66 -82 0
58 -66 -82 0
66 -76 82 0
-60 66 82 0
-58 66 82 0
-58 -60 -76 82 0
58 60 76 -82 0
-69 -78 83 0
-66 -78 83 0
-66 -69 83 0
69 78 -83 0
66 78 -83 0
66 69 -83 0
78 -83 -84 0
69 -83 -84 0
66 -83 -84 0
-78 83 84 0
-69 83 84 0
-66 83 84 0
-66 -69 -78 84 0
66 69 78 -84 0
-74 -80 85 0
-80 -83 85 0
-74 -83 85 0
74 80 -85 0
80 83 -85 0
74 83 -85 0
80 -85 -86 0
74 -85 -86 0
83 -85 -86 0
-80 85 86 0
-74 85 86 0
-83 85 86 0
-74 -80 -83 86 0
74 80 83 -86 0
-53 -57 87 0
-53 -85 87 0
-57 -85 87 0
53 57 -87 0
53 85 -87 0
57 85 -87 0
53 -87 -88 0
57 -87 -88 0
85 -87 -88 0
-53 87 88 0
-57 87 88 0
-85 87 88 0
-53 -57 -85 88 0
53 57 85 -88 0
-61 -62 89 0
-61 -87 89 0
-62 -87 89 0
61 62 -89 0
61 87 -89 0
62 87 -89 0
61 -89 -90 0
62 -89 -90 0
87 -89 -90 0
-61 89 90 0
-62 89 90 0
-87 89 90 0
-61 -62 -87 90 0
61 62 87 -90 0
-56 -65 91 0
-56 -89 91 0
-65 -89 91 0
56 65 -91 0
56 89 -91 0
65 89 -91 0
56 -91 -92 0
65 -91 -92 0
89 -91 -92 0
-56 91 92 0
-65 91 92 0
-89 91 92 0
-56 -65 -89 92 0
56 65 89 -92 0
-52 -93 0
-55 -93 0
52 55 93 0
52 55 -94 0
-52 -55 -94 0
-52 55 94 0
52 -55 94 0
93 -95 0
-60 -95 0
60 -93 95 0
60 -93 -96 0
-60 93 -96 0
60 93 96 0
-60 -93 96 0
95 -97 0
-44 -97 0
44 -95 97 0
-38 44 -95 0
-38 -44 95 0
38 44 95 0
38 -44 -95 0
-37 97 0
-37 -75 0
37 75 -97 0
-36 75 -97 0
-36 -75 97 0
36 75 97 0
36 -75 -97 0
-35 37 0
-35 -63 0
35 -37 63 0
-34 -37 63 0
-34 37 -63 0
34 37 63 0
34 -37 -63 0
-33 35 0
-33 -82 0
33 -35 82 0
-32 -35 82 0
-32 35 -82 0
32 35 82 0
32 -35 -82 0
-31 33 0
-31 -84 0
31 -33 84 0
-30 -33 84 0
-30 33 -84 0
30 33 84 0
30 -33 -84 0
-29 31 0
-29 -86 0
29 -31 86 0
-28 -31 86 0
-28 31 -86 0
28 31 86 0
28 -31 -86 0
-27 29 0
-27 -88 0
27 -29 88 0
-26 -29 88 0
-26 29 -88 0
26 29 88 0
26 -29 -88 0
-25 27 0
-25 -90 0
25 -27 90 0
-24 -27 90 0
-24 27 -90 0
24 27 90 0
24 -27 -90 0
-23 25 0
-23 -92 0
23 -25 92 0
-22 -25 92 0
-22 25 -92 0
22 25 92 0
22 -25 -92 0
-21 23 0
-21 -91 0
21 -23 91 0
-20 -23 91 0
-20 23 -91 0
20 23 91 0
20 -23 -91 0
-19 52 0
18 -19 0
-18 19 -52 0
18 -52 0
-18 52 0
16 -17 -55 0
16 -19 -55 0
16 -17 -19 0
-16 17 55 0
-16 19 55 0
-16 17 19 0
16 -55 0
16 -17 0
16 -19 0
-17 -19 -55 0
14 -15 -60 0
14 -16 -60 0
14 -15 -16 0
-14 15 60 0
-14 16 60 0
-14 15 16 0
-14 60 0
-14 15 0
-14 16 0
15 16 60 0
12 -13 -44 0
12 -14 -44 0
12 -13 -14 0
-12 13 44 0
-12 14 44 0
-12 13 14 0
12 -44 0
12 -13 0
12 -14 0
-13 -14 -44 0
10 -11 -75 0
10 -12 -75 0
10 -11 -12 0
-10 11 75 0
-10 12 75 0
-10 11 12 0
-10 75 0
-10 11 0
-10 12 0
11 12 75 0
8 -9 -63 0
8 -10 -63 0
8 -9 -10 0
-8 9 63 0
-8 10 63 0
-8 9 10 0
8 -63 0
8 -9 0
8 -10 0
-9 -10 -63 0
6 -7 -82 0
6 -8 -82 0
6 -7 -8 0
-6 7 82 0
-6 8 82 0
-6 7 8 0
-6 82 0
-6 7 0
-6 8 0
7 8 82 0
-5 84 0
-5 6 0
5 -6 -84 0
6 -84 0
-6 84 0
-4 86 0
-4 5 0
4 -5 -86 0
5 -86 0
-5 86 0
-3 88 0
-3 4 0
3 -4 -88 0
4 -88 0
-4 88 0
-2 90 0
-2 3 0
2 -3 -90 0
3 -90 0
-3 90 0
-1 92 0
-1 2 0
1 -2 -92 0
2 -92 0
-2 92 0
-1 -91 0
1 -91 0
-1 91 0
